(set-logic QF_S)
(declare-const x String)
(assert (str.in.re x (re.inter  (re.++ (re.* (re.union (re.range "\u{00}" "\u{09}") (re.range "\u{0b}" "\u{0c}") (re.range "\u{0e}" "\u{84}") (re.range "\u{86}" "\u{ff}")) ) (re.*  (re.union  (str.to.re "\u{73}") (re.union  (str.to.re "\u{67}") (re.union  (str.to.re "\u{69}")  (str.to.re "\u{6d}")))) ))  (re.++ (re.* (re.union (re.range "\u{00}" "\u{09}") (re.range "\u{0b}" "\u{0c}") (re.range "\u{0e}" "\u{84}") (re.range "\u{86}" "\u{ff}")) ) (re.++  (re.++ (re.comp  (str.to.re "\u{5c}"))  (str.to.re "\u{2f}")) (re.*  (re.union  (str.to.re "\u{73}") (re.union  (str.to.re "\u{67}") (re.union  (str.to.re "\u{69}")  (str.to.re "\u{6d}")))) ))) )))
(check-sat)
(get-model)